20	100	100	100
47	100	100
34	100	100
32	100	100
29	100	100
31	100	100
30	100	100
9	100	100
47	100	100
6	100	100
9	100	100
1	100	100
21	100	100
9	100	100
31	100	100
2	100	100
41	100	100
49	100	100
36	100	100
39	100	100
3	100	100
